Problem:    mod
Rows:       85
Columns:    48
Non-zeros:  212
Status:     OPTIMAL
Objective:  costi = 5446500 (MINimum)

   No.   Row name   St   Activity     Lower bound   Upper bound    Marginal
------ ------------ -- ------------- ------------- ------------- -------------
     1 soddisfacimento_domanda[1,X]
                    B           1800          1800               
     2 soddisfacimento_domanda[1,Y]
                    B            500           500               
     3 soddisfacimento_domanda[2,X]
                    B           1700          1700               
     4 soddisfacimento_domanda[2,Y]
                    B            400           400               
     5 soddisfacimento_domanda[3,X]
                    B           1800          1800               
     6 soddisfacimento_domanda[3,Y]
                    B            500           500               
     7 soddisfacimento_domanda[4,X]
                    B           2500          1800               
     8 soddisfacimento_domanda[4,Y]
                    B            700           600               
     9 soddisfacimento_domanda[5,X]
                    B           3150          1900               
    10 soddisfacimento_domanda[5,Y]
                    B           1100           700               
    11 soddisfacimento_domanda[6,X]
                    B           3800          2300               
    12 soddisfacimento_domanda[6,Y]
                    B           1400           800               
    13 soddisfacimento_domanda[7,X]
                    B           3800          2500               
    14 soddisfacimento_domanda[7,Y]
                    B           1500           900               
    15 soddisfacimento_domanda[8,X]
                    B           2500          2500               
    16 soddisfacimento_domanda[8,Y]
                    B           1000          1000               
    17 soddisfacimento_domanda[9,X]
                    B           2000          2000               
    18 soddisfacimento_domanda[9,Y]
                    B            800           800               
    19 soddisfacimento_domanda[10,X]
                    B           1800          1800               
    20 soddisfacimento_domanda[10,Y]
                    B            900           800               
    21 soddisfacimento_domanda[11,X]
                    B           1900          1700               
    22 soddisfacimento_domanda[11,Y]
                    B           1100           800               
    23 soddisfacimento_domanda[12,X]
                    B           2000          2000               
    24 soddisfacimento_domanda[12,Y]
                    B           1000          1000               
    25 dimensionamento_magazzino[1,X]
                    NS          1800          1800             =           125 
    26 dimensionamento_magazzino[1,Y]
                    NS           500           500             =           240 
    27 dimensionamento_magazzino[2,X]
                    NS          1700          1700             =           140 
    28 dimensionamento_magazzino[2,Y]
                    NS           400           400             =           245 
    29 dimensionamento_magazzino[3,X]
                    NS          1800          1800             =           140 
    30 dimensionamento_magazzino[3,Y]
                    NS           500           500             =           230 
    31 dimensionamento_magazzino[4,X]
                    NS          1800          1800             =           150 
    32 dimensionamento_magazzino[4,Y]
                    NS           600           600             =           230 
    33 dimensionamento_magazzino[5,X]
                    NS          1900          1900             =           175 
    34 dimensionamento_magazzino[5,Y]
                    NS           700           700             =           255 
    35 dimensionamento_magazzino[6,X]
                    NS          2300          2300             =           195 
    36 dimensionamento_magazzino[6,Y]
                    NS           800           800             =           275 
    37 dimensionamento_magazzino[7,X]
                    NS          2500          2500             =           205 
    38 dimensionamento_magazzino[7,Y]
                    NS           900           900             =           285 
    39 dimensionamento_magazzino[8,X]
                    NS          2500          2500             =           215 
    40 dimensionamento_magazzino[8,Y]
                    NS          1000          1000             =           295 
    41 dimensionamento_magazzino[9,X]
                    NS          2000          2000             =           135 
    42 dimensionamento_magazzino[9,Y]
                    NS           800           800             =           225 
    43 dimensionamento_magazzino[10,X]
                    NS          1800          1800             =           145 
    44 dimensionamento_magazzino[10,Y]
                    NS           800           800             =           235 
    45 dimensionamento_magazzino[11,X]
                    NS          1700          1700             =           160 
    46 dimensionamento_magazzino[11,Y]
                    NS           800           800             =           260 
    47 dimensionamento_magazzino[12,X]
                    NS          2000          2000             =           195 
    48 dimensionamento_magazzino[12,Y]
                    NS          1000          1000             =           295 
    49 limite_magazzino[1]
                    B              0                        2500 
    50 limite_magazzino[2]
                    B              0                        2500 
    51 limite_magazzino[3]
                    B              0                        2500 
    52 limite_magazzino[4]
                    B            800                        2500 
    53 limite_magazzino[5]
                    B           1650                        2500 
    54 limite_magazzino[6]
                    B           2100                        2500 
    55 limite_magazzino[7]
                    B           1900                        2500 
    56 limite_magazzino[8]
                    B              0                        2500 
    57 limite_magazzino[9]
                    B              0                        2500 
    58 limite_magazzino[10]
                    B            100                        2500 
    59 limite_magazzino[11]
                    B            500                        2500 
    60 limite_magazzino[12]
                    B              0                        2500 
    61 limite_produzione[1,X]
                    B           1800                        2400 
    62 limite_produzione[1,Y]
                    B            500                        1000 
    63 limite_produzione[2,X]
                    B           1700                        2300 
    64 limite_produzione[2,Y]
                    B            400                         900 
    65 limite_produzione[3,X]
                    B           1800                        2500 
    66 limite_produzione[3,Y]
                    B            500                        1000 
    67 limite_produzione[4,X]
                    B           2500                        2500 
    68 limite_produzione[4,Y]
                    B            700                        1000 
    69 limite_produzione[5,X]
                    NU          2450                        2450           -45 
    70 limite_produzione[5,Y]
                    NU          1000                        1000           -30 
    71 limite_produzione[6,X]
                    NU          2550                        2550           -75 
    72 limite_produzione[6,Y]
                    NU          1000                        1000           -55 
    73 limite_produzione[7,X]
                    NU          2300                        2300          -105 
    74 limite_produzione[7,Y]
                    NU           900                         900           -70 
    75 limite_produzione[8,X]
                    NU          1200                        1200           -45 
    76 limite_produzione[8,Y]
                    NU           400                         400           -55 
    77 limite_produzione[9,X]
                    B           2000                        2200 
    78 limite_produzione[9,Y]
                    B            800                        1000 
    79 limite_produzione[10,X]
                    B           1800                        2500 
    80 limite_produzione[10,Y]
                    B            900                        1000 
    81 limite_produzione[11,X]
                    B           1900                        2500 
    82 limite_produzione[11,Y]
                    NU          1000                        1000           -20 
    83 limite_produzione[12,X]
                    NU          1800                        1800           -20 
    84 limite_produzione[12,Y]
                    NU           700                         700           -45 
    85 costi        B     5.4465e+06                             

   No. Column name  St   Activity     Lower bound   Upper bound    Marginal
------ ------------ -- ------------- ------------- ------------- -------------
     1 magazzino[1,X]
                    NL             0             0                          30 
     2 magazzino[1,Y]
                    NL             0             0                          40 
     3 magazzino[2,X]
                    NL             0             0                          45 
     4 magazzino[2,Y]
                    NL             0             0                          60 
     5 magazzino[3,X]
                    NL             0             0                          30 
     6 magazzino[3,Y]
                    NL             0             0                          40 
     7 magazzino[4,X]
                    B            700             0               
     8 magazzino[4,Y]
                    B            100             0               
     9 magazzino[5,X]
                    B           1250             0               
    10 magazzino[5,Y]
                    B            400             0               
    11 magazzino[6,X]
                    B           1500             0               
    12 magazzino[6,Y]
                    B            600             0               
    13 magazzino[7,X]
                    B           1300             0               
    14 magazzino[7,Y]
                    B            600             0               
    15 magazzino[8,X]
                    NL             0             0                          90 
    16 magazzino[8,Y]
                    NL             0             0                          80 
    17 magazzino[9,X]
                    NL             0             0                           5 
    18 magazzino[9,Y]
                    NL             0             0                           5 
    19 magazzino[10,X]
                    NL             0             0                          10 
    20 magazzino[10,Y]
                    B            100             0               
    21 magazzino[11,X]
                    B            200             0               
    22 magazzino[11,Y]
                    B            300             0               
    23 magazzino[12,X]
                    NL             0             0                         235 
    24 magazzino[12,Y]
                    NL             0             0                         335 
    25 produzione[1,X]
                    B           1800             0               
    26 produzione[1,Y]
                    B            500             0               
    27 produzione[2,X]
                    B           1700             0               
    28 produzione[2,Y]
                    B            400             0               
    29 produzione[3,X]
                    B           1800             0               
    30 produzione[3,Y]
                    B            500             0               
    31 produzione[4,X]
                    B           2500             0               
    32 produzione[4,Y]
                    B            700             0               
    33 produzione[5,X]
                    B           2450             0               
    34 produzione[5,Y]
                    B           1000             0               
    35 produzione[6,X]
                    B           2550             0               
    36 produzione[6,Y]
                    B           1000             0               
    37 produzione[7,X]
                    B           2300             0               
    38 produzione[7,Y]
                    B            900             0               
    39 produzione[8,X]
                    B           1200             0               
    40 produzione[8,Y]
                    B            400             0               
    41 produzione[9,X]
                    B           2000             0               
    42 produzione[9,Y]
                    B            800             0               
    43 produzione[10,X]
                    B           1800             0               
    44 produzione[10,Y]
                    B            900             0               
    45 produzione[11,X]
                    B           1900             0               
    46 produzione[11,Y]
                    B           1000             0               
    47 produzione[12,X]
                    B           1800             0               
    48 produzione[12,Y]
                    B            700             0               

Karush-Kuhn-Tucker optimality conditions:

KKT.PE: max.abs.err = 0.00e+00 on row 0
        max.rel.err = 0.00e+00 on row 0
        High quality

KKT.PB: max.abs.err = 0.00e+00 on row 0
        max.rel.err = 0.00e+00 on row 0
        High quality

KKT.DE: max.abs.err = 0.00e+00 on column 0
        max.rel.err = 0.00e+00 on column 0
        High quality

KKT.DB: max.abs.err = 0.00e+00 on row 0
        max.rel.err = 0.00e+00 on row 0
        High quality

End of output
